benchmarks/bfuzz0/21770368820520812315140153721978822088.smt2
(set-logic QF_FP)
(declare-const x0 (_ FloatingPoint 8 24))
(declare-const x1 (_ FloatingPoint 8 24))
(declare-const x2 (_ FloatingPoint 8 24))
(declare-const x3 (_ FloatingPoint 8 24))
(declare-const x4 (_ FloatingPoint 8 24))
(declare-const x5 (_ FloatingPoint 8 24))
(declare-const x6 (_ FloatingPoint 8 24))
(declare-const x7 (_ FloatingPoint 8 24))
(assert (fp.eq (fp.add RNE (fp.neg x2) (fp.div RNE x5 x1)) (fp.sub RNE (fp.add RNE x3 x1) (fp.mul RNE x0 x6))))
(assert (fp.gt (fp.mul RNE (fp.add RNE x2 x7) (fp.div RNE x5 x2)) (fp.mul RNE (fp.div RNE x4 x4) (fp.mul RNE x4 x4))))
(assert (fp.lt (fp.neg (fp.sub RNE x6 x6)) (fp.add RNE (fp.div RNE x4 x3) (fp.neg x1))))
(assert (fp.leq (fp.sub RNE (fp.neg x6) (fp.neg x4)) (fp.div RNE (fp.add RNE x7 x0) (fp.add RNE x7 x7))))
(assert (fp.gt (fp.neg (fp.mul RNE x6 x4)) (fp.sub RNE (fp.neg x2) (fp.neg x5))))
(assert (fp.lt (fp.div RNE (fp.sub RNE x3 x7) (fp.add RNE x6 x3)) (fp.neg (fp.neg x6))))
(assert (fp.geq (fp.mul RNE (fp.add RNE x6 x7) (fp.mul RNE x1 x5)) (fp.mul RNE (fp.neg x5) (fp.sub RNE x1 x5))))
(assert (fp.leq (fp.sub RNE (fp.add RNE x1 x7) (fp.mul RNE x4 x2)) (fp.sub RNE (fp.neg x0) (fp.div RNE x6 x1))))
(assert (fp.lt (fp.add RNE (fp.neg x1) (fp.neg x3)) (fp.sub RNE (fp.div RNE x4 x3) (fp.neg x6))))
(assert (fp.geq (fp.sub RNE (fp.add RNE x0 x7) (fp.neg x3)) (fp.neg (fp.sub RNE x4 x4))))
(check-sat)
