db/data/21770368820520812315140153721978822088.z3.out
sat
-------------------
585.822258560
